! GFN2-xTB Opt
* xyz 0 1
  O      -3.629750      0.112321     -4.423501
  P      -4.722756     -1.003096     -4.769947
  H      -3.371529      0.090620     -3.495314
  O      -6.093684     -0.208614     -4.343072
  O      -4.560018     -2.162563     -3.823533
  P      -7.631391     -0.639567     -4.244258
  O      -8.318396      0.807332     -4.511672
  O      -7.973190     -1.013854     -2.832091
  P      -9.147752      1.357691     -5.772120
  O      -9.257087      2.913107     -5.470091
  O     -10.582958      0.792207     -5.588305
  H      -9.837630      3.116185     -4.727031
  O      -4.711168     -1.216992     -6.237337
  O      -8.009024     -1.611816     -5.313788
  O      -8.481848      1.145589     -7.065649
  N      -6.345984     -3.005127     -2.223354
  N      -6.893459     -0.967409     -7.671629
  N     -10.773664     -1.372230     -4.157066
  H      -5.526196     -2.697772     -2.911370
  H      -6.022989     -3.065252     -1.263435
  H      -7.088159     -2.244438     -2.333488
  H      -6.734456     -3.898968     -2.509048
  H      -7.473926     -1.479392     -6.977539
  H      -7.313313     -0.019223     -7.685774
  H      -6.886406     -1.397550     -8.588286
  H      -5.927962     -0.963526     -7.224948
  H     -10.368420     -2.090750     -4.748426
  H     -10.680491     -0.068811     -4.998059
  H     -10.179057     -1.306341     -3.332024
  H     -11.710906     -1.642725     -3.882225
  *
  --
! B3LYP D3BJ def2-SVP Opt RIJCOSX
%geom
  MaxIter 500
end
--
! B3LYP D3BJ def2-TZVP TightSCF Opt RIJCOSX
%geom
  MaxIter 500
end
