! CAM-B3LYP cc-pVDZ DefGrid3 VeryTightSCF VeryTightOpt NumFreq

%pal
 nprocs 24
end

* xyz 0 1
C     -0.8887823380   18.3404249942   32.2932817656
C     -3.2683813380   17.7585849942   31.7351947656
C      0.1846866620   18.3404249942   25.8784807656
C      0.1663206620   17.9040449942   34.5063887656
C     -0.0697253380   18.3404249942   27.3987887656
C      6.6255046620   18.3404249942  -12.6103292344
C      1.2397896620   17.9040449942   28.0915867656
C     -1.8595263380   18.7560249942   29.9326347656
C     -2.9329953380   18.7560249942   36.3474367656
C     -1.1431953380   18.3404249942   33.8135897656
C      5.6547616620   18.7560249942  -14.9709762344
C     -1.5625303380   19.7119049942   34.3780927656
C     -2.1949113380   17.7585849942   25.3203927656
H     -0.7918062632   18.7427575441   23.9975211529
H     -1.3445763293   19.7455172861   25.3089247898
H     -3.8518249084   19.0332697943   35.8743747680
C     -1.8169423380   19.7119049942   35.8984007656
H     -3.0468754094   18.8146944576   37.4097405525
C     -2.1139383380   18.7560249942   31.4529427656
C     -2.2038843380   21.1665049942   36.3089477656
H     -2.6774780438   17.7544589908   36.0708927989
C     -1.0404683380   18.7560249942   25.0381417656
C     -1.1304153380   21.1665049942   29.8941467656
C     -0.7434733380   19.7119049942   29.4835987656
C     -0.4890603380   19.7119049942   27.9632907656
H     -0.5990690773   17.3528904206   32.0004647499
H     -0.1246122551   19.0658291266   32.1069137388
H     -4.1266603324   18.0340103996   31.1586549786
H     -2.9597226690   16.7702123041   31.4654738658
H     -3.5149056292   17.7836624694   32.7761063884
H      0.9824639111   19.0225336983   25.6706844980
H      0.4218094490   17.3338035131   25.6039154914
H      0.0226011924   17.8937262144   35.5666426735
H      0.4363747184   16.9236565252   34.1735083536
H      0.9472412757   18.5924206759   34.2589983289
H     -0.8843025210   17.6727176844   27.5872856450
H      7.0508917300   17.9300577516  -13.5022623489
H      6.0113208610   19.1798047820  -12.8615660602
H      6.0305063790   17.5960376505  -12.1237445675
H      7.4092996781   18.6557997928  -11.9537439608
H      2.0138527468   18.6077526226   27.8668157115
H      1.0880080755   17.8667863886   29.1501113324
H      1.5247634331   16.9352641505   27.7378160221
H     -1.5910550077   17.7633935303   29.6368205773
H     -2.7619444893   19.0955544172   29.4686720911
H     -1.9577729378   17.6727178835   34.0020855492
H      5.3668077684   17.8110335871  -14.5599118747
H      6.0842683353   19.3635118444  -14.2019613732
H      6.3742768200   18.6026516859  -15.7479412774
H      4.7936937244   19.2469028594  -15.3740904123
H     -0.7841232089   20.4150704023   34.1670457033
H     -2.4888028077   19.9701739479   33.9088203802
H     -3.0531900384   18.0340106065   24.7438526397
H     -1.8862525203   16.7702124080   25.0506716554
H     -2.4414361653   17.7836620781   26.3613042708
H     -0.9222943621   19.3689648769   36.3747380279
H     -2.3506403945   19.7596565214   31.7385929125
H     -3.1022954397   21.4528127234   35.8031953670
H     -2.3609684790   21.2087845026   37.3665096447
H     -1.4137625142   21.8355147487   36.0387005376
H     -0.3592589374   21.8411936486   29.5859047540
H     -2.0513160869   21.4374908932   29.4214856128
H     -1.2460443640   21.2184272647   30.9566128208
H      0.1511747496   19.3689647228   29.9599357072
H      0.2893470752   20.4150702094   27.7522441083
H     -1.4153322813   19.9701743291   27.4940175511
*