! CAM-B3LYP cc-pVDZ DefGrid3 VeryTightSCF VeryTightOpt NumFreq Raman

%pal
 nprocs 24
end

* xyz 0 1
C      1.8270492368   19.8077561038   34.2070120372
C      3.8712622368   19.3921561038   30.1528570372
C      2.5561602368   22.2182361038   34.1685230372
C      2.9431022368   20.7636361038   33.7579760372
C      3.1975142368   20.7636361038   32.2376680372
C      3.6168492368   19.3921561038   31.6731650372
H      1.7131691654   19.8664255672   35.2693158241
H      0.9082196663   20.0850009039   33.7339500396
H      2.0825665310   18.8061901005   33.9304680705
H      4.1564854072   18.4098032608   29.8389609603
H      2.9778763254   19.6845766189   29.6417289045
H      4.6560263923   20.0820884318   29.9225556797
H      3.3273167757   22.8929245497   33.8602809154
H      1.6352596614   22.4892217895   33.6958614240
H      2.4405308541   22.2701589645   35.2309890248
H      3.8377502126   20.4206959865   34.2343132996
H      2.2977712278   21.0692892278   31.7457952916
H      4.0120635801   21.4342627122   32.0597089640
H      2.8384417923   18.6889908748   31.8842115331
H      4.5431213955   19.1338869470   32.1424379247
*