! CAM-B3LYP cc-pVDZ VeryTightSCF VeryTightOpt NumFreq

%method
  Grid5
end

%pal
 nprocs 24
end

* xyz 0 1
C     -0.5916204639   18.6677891391   40.1581209697
C     -0.8460334639   18.6677891391   41.6784289697
C      0.5244325361   19.6236691391   39.7090849697
H     -0.3231488303   17.6751576637   39.8623070953
H     -1.4940384242   19.0073186475   39.6941579862
H      0.0338426402   18.3334656977   42.1872963299
H     -1.0887104165   19.6592309207   41.9994448611
H     -1.6598340300   18.0106707988   41.9038712853
H      1.4513224067   19.3221565597   40.1505206327
H      0.6111016243   19.5949876955   38.6429864958
H      0.2880659251   20.6195149020   40.0210499581
*