! CAM-B3LYP cc-pVDZ DefGrid3 VeryTightSCF VeryTightOpt NumFreq Raman

%pal
 nprocs 24
end

* xyz 0 1
C      3.8395132955   17.4590679782   29.2373532423
C      3.7495672955   19.8695479782   34.0933582423
C      4.1365092955   18.4149479782   33.6828112423
C      4.3909212955   18.4149479782   32.1625032423
C      6.1197722955   16.6070879782   32.2907992423
C      4.8102562955   17.0434679782   31.5980002423
C      5.0646692955   17.0434679782   30.0776922423
C      2.6850702955   16.4616279782   29.5196052423
C      3.0204562955   17.4590679782   34.1318472423
H      2.1016267250   17.7363127783   33.6587852447
H      3.2759735897   16.4575019748   33.8553032756
H      2.9065762241   17.5177374416   35.1941510292
H      4.0905884352   17.4351102143   28.1975035359
H      3.5370518183   18.4518392149   29.4977806575
H      4.5207238344   20.5442364241   33.7851161204
H      2.8286667201   20.1405336639   33.6206966290
H      3.6339379129   19.9214708389   35.1558242298
H      5.0311572713   18.0720078609   34.1591485046
H      5.1693284245   19.1181133863   31.9514561799
H      3.4646488258   18.6732169319   31.6932308569
H      5.9760528258   16.5967691984   33.3510531501
H      6.3898263519   15.6266995092   31.9579188303
H      6.9006929092   17.2954636599   32.0434088056
H      3.9956786956   16.3757608675   31.7864960259
H      5.3543825562   16.0559334046   29.7848752266
H      5.8288393783   17.7688721106   29.8913242155
H      2.9961958214   15.4722587103   29.2564523000
H      2.4338129310   16.4918246109   30.5592484563
H      1.8290575174   16.7329308040   28.9377659065
*