! CAM-B3LYP cc-pVDZ DefGrid3 VeryTightSCF VeryTightOpt NumFreq Raman

%pal
 nprocs 24
end

* xyz 0 1
C     -2.7552628581   16.7148796695   38.1527222761
C     -2.8452088581   19.1253596695   43.0087272761
C     -2.4582668581   17.6707596695   42.5981802761
C     -2.2038548581   17.6707596695   41.0778722761
C     -0.4750038581   15.8628996695   41.2061682761
C     -1.7845198581   16.2992796695   40.5133692761
H     -3.3188025639   15.7133136661   42.7706723094
H     -4.4931494285   16.9921244696   42.5741542785
C     -1.5301068581   16.2992796695   38.9930612761
C     -2.5008508581   16.7148796695   36.6324142761
C     -3.9097058581   15.7174396695   38.4349742761
C     -3.5743198581   16.7148796695   43.0472162761
C     -1.3847978581   17.6707596695   36.1833782761
H     -3.6881999295   16.7735491329   44.1095200630
C     -1.7717398581   19.1253596695   36.5939262761
H     -2.9919649146   17.7185111966   38.4383724230
H     -3.0294159616   19.1615983687   44.0621287247
H     -2.0435081596   19.7903152350   42.7637574858
H     -3.7280758722   19.4217623969   42.4818578702
H     -1.5636188822   17.3278195522   43.0745175384
H     -3.1035978670   17.9764127935   40.5859995305
H     -1.3893055148   18.3413862778   40.8999132029
H     -0.6187233277   15.8525808897   42.2664221840
H     -0.2049498017   14.8825112005   40.8732878641
H      0.3059167556   16.5512753512   40.9587778394
H     -2.5990974579   15.6315725588   40.7018650597
H     -1.2403935974   15.3117450958   38.7002442604
H     -0.7659367752   17.0246838019   38.8066932493
H     -3.4067263924   17.0010590091   36.1400820569
H     -2.1838499321   15.7265166810   36.3725121250
H     -3.6150008931   14.7351621059   38.1297204736
H     -4.1304309330   15.7143747316   39.4819562051
H     -4.7798303648   16.0149123615   37.8878970855
H     -0.4648863707   17.3965311867   36.6560956407
H     -1.2627770427   17.6133411321   35.1219103565
H     -1.8922348747   19.1761243793   37.6559074471
H     -0.9982781749   19.7994140554   36.2901042532
H     -2.6900798990   19.3981373977   36.1173300188
*