! CAM-B3LYP cc-pVDZ DefGrid3 VeryTightSCF VeryTightOpt NumFreq

%pal
 nprocs 24
end

* xyz 0 1
C      0.1237747972   21.7112172993   15.4983729404
C      0.5107167972   20.2566172993   15.0878259404
C      0.7651287972   20.2566172993   13.5675179404
C      2.4939797972   18.4487572993   13.6958139404
C      1.1844647972   18.8851372993   13.0030149404
C      1.4388767972   18.8851372993   11.4827069404
C     -0.9407212028   18.3032972993   10.9246199404
C      0.2137207972   19.3007372993   10.6423679404
C     -0.6053362028   19.3007372993   15.5368619404
C     -0.8597482028   19.3007372993   17.0571699404
C      0.4681337972   19.3007372993    9.1220599404
H     -0.1633809483   19.8673047983   19.7418000671
H     -0.6861470143   18.2156636690   19.6653449246
C     -2.0141912028   18.3032972993   17.3394209404
C      1.4205097972   18.4487572993   20.1106159404
C      0.1109947972   18.8851372993   19.4178169404
C      0.3654067972   18.8851372993   17.8975089404
H     -0.0604323063   21.7474559985   16.5517743890
H      0.9254754957   22.3761728648   15.2534031501
H     -0.7590922169   22.0076200267   14.9715035345
H      1.4053647730   19.9136771819   15.5641632027
H     -0.1346144204   20.5622697691   13.0756451700
H      1.5796777047   20.9272444238   13.3895588179
H      2.3502600941   18.4384387954   14.7560678193
H      2.7640336326   17.4683686764   13.3629338024
H      3.2749006706   19.1371326930   13.4484235221
H      0.3698876767   18.2174296505   13.1915108892
H      2.2366538674   19.5672461758   11.2749105520
H      1.6759999975   17.8785159542   11.2081415241
H     -1.1427874834   18.2796266042   11.9751003204
H     -1.8188766377   18.6162663338   10.3994594622
H     -0.6566437962   17.3261288205   10.5939510678
H     -0.0229821628   20.3043687106   10.9280177456
H     -1.5112117372   19.5869166389   15.0445297212
H     -0.2883352768   18.3123743108   15.2769597893
H     -1.0964498465   20.3043688349   17.3428203997
H      0.7086013534   18.3088770516    8.8006743219
H     -0.4109950408   19.6372099731    8.6133176300
H      1.2833964935   19.9561248731    8.8968623022
H     -1.7194861644   17.3210198960   17.0341666930
H     -2.2349166489   18.3002317837   18.3864027895
H     -2.8843155051   18.6007703280   16.7923436077
H      2.2048252384   19.1289756779   19.8516712392
H      1.2810889898   18.4523204000   21.1714878719
H      1.6828701691   17.4626440868   19.7886720328
H      0.6551196989   17.8976026092   17.6046919620
H      1.1295766245   19.6105417195   17.7111409864
*