%mem=20000MB
%nprocshared=18
#p cam-b3lyp/cc-pvdz integral=grid=ultrafine opt=verytight freq=raman 
scf=conver=10 symm=loose

Title Card Required

0 1
 C                  3.49850000   20.46830000    8.33280000
 C                  3.88540000   19.01370000    7.92230000
 C                  4.13990000   19.01370000    6.40200000
 C                  5.86870000   17.20580000    6.53030000
 C                  4.55920000   17.64220000    5.83750000
 C                  4.81360000   17.64220000    4.31720000
 C                  2.43400000   17.06040000    3.75910000
 C                  3.58840000   18.05780000    3.47680000
 C                  2.76940000   18.05780000    8.37130000
 C                  2.51500000   18.05780000    9.89160000
 C                  3.84290000   18.05780000    1.95650000
 C                  2.42500000   20.46830000   14.74760000
 C                  2.81200000   19.01370000   14.33710000
 C                  3.06640000   19.01370000   12.81680000
 C                  4.79520000   17.20580000   12.94510000
 C                  3.48570000   17.64220000   12.25230000
 C                  3.74010000   17.64220000   10.73200000
 C                  1.36050000   17.06040000   10.17390000
 C                  1.69590000   18.05780000   14.78610000
 C                  1.44150000   18.05780000   16.30640000
 C                  1.35160000   20.46830000   21.16240000
 C                  1.73850000   19.01370000   20.75190000
 C                  1.99290000   19.01370000   19.23160000
 C                  3.72180000   17.20580000   19.35990000
 C                  2.41230000   17.64220000   18.66710000
 C                  2.66670000   17.64220000   17.14680000
 C                  0.28710000   17.06040000   16.58870000
 C                  0.62250000   18.05780000   21.20090000
 C                  0.36800000   18.05780000   22.72120000
 C                  0.27810000   20.46830000   27.57720000
 C                  0.66500000   19.01370000   27.16670000
 C                  0.91940000   19.01370000   25.64640000
 C                  2.64830000   17.20580000   25.77470000
 C                  1.33880000   17.64220000   25.08190000
 C                  1.59320000   17.64220000   23.56160000
 C                 -0.78640000   17.06040000   23.00350000
 C                 -0.45100000   18.05780000   27.61570000
 C                 -0.70540000   18.05780000   29.13600000
 H                  3.55180000   20.56470000    9.39710000
 H                  4.17660000   21.15960000    7.87770000
 H                  2.50180000   20.67820000    8.00510000
 H                  4.78000000   18.67080000    8.39870000
 H                  4.97740000   19.66130000    6.24660000
 H                  3.19740000   19.23980000    5.94860000
 H                  6.34530000   16.25120000    6.61140000
 H                  5.15920000   16.70290000    7.15360000
 H                  6.14760000   17.05650000    5.50810000
 H                  3.74460000   16.97450000    6.02600000
 H                  5.01510000   16.62450000    4.05530000
 H                  5.55390000   18.39540000    4.14550000
 H                  1.50650000   17.59190000    3.80430000
 H                  2.39080000   16.33370000    2.97490000
 H                  2.60860000   16.56770000    4.69270000
 H                  3.35160000   19.06140000    3.76240000
 H                  3.11620000   17.07370000    8.13420000
 H                  1.87060000   18.43010000    7.92580000
 H                  2.27840000   19.06150000   10.17720000
 H                  3.66590000   19.03790000    1.56520000
 H                  4.85680000   17.77490000    1.76460000
 H                  3.18260000   17.36070000    1.48430000
 H                  2.79360000   20.67130000   15.73140000
 H                  2.85610000   21.16090000   14.05530000
 H                  1.35990000   20.57030000   14.73770000
 H                  3.70660000   18.67080000   14.81350000
 H                  3.90380000   19.66130000   12.66140000
 H                  2.12390000   19.23970000   12.36350000
 H                  5.38760000   16.31980000   12.85060000
 H                  4.12050000   16.49220000   13.36990000
 H                  5.15500000   17.33570000   11.94580000
 H                  2.67110000   16.97450000   12.44080000
 H                  3.94150000   16.62450000   10.47020000
 H                  4.48050000   18.39540000   10.56030000
 H                  0.87990000   17.32210000   11.09340000
 H                  0.64960000   17.10240000    9.37530000
 H                  1.75580000   16.06880000   10.24770000
 H                  2.04270000   17.07370000   14.54900000
 H                  0.79710000   18.43010000   14.34060000
 H                  1.20480000   19.06140000   16.59200000
 H                  1.50220000   20.59410000   22.21430000
 H                  1.96430000   21.16440000   20.62860000
 H                  0.32300000   20.64400000   20.92580000
 H                  2.63310000   18.67080000   21.22830000
 H                  2.83030000   19.66140000   19.07610000
 H                  1.05040000   19.23970000   18.77830000
 H                  4.35030000   16.35170000   19.21720000
 H                  3.06600000   16.43860000   19.71520000
 H                  4.09880000   17.42120000   18.38200000
 H                  1.59770000   16.97450000   18.85560000
 H                  2.86820000   16.62450000   16.88490000
 H                  3.40700000   18.39540000   16.97510000
 H                 -0.13080000   17.26210000   17.55290000
 H                 -0.47060000   17.17100000   15.84130000
 H                  0.66650000   16.06020000   16.56660000
 H                  0.96930000   17.07370000   20.96390000
 H                 -0.27630000   18.43000000   20.75540000
 H                  0.13120000   19.06140000   23.00680000
 H                  0.36930000   20.57580000   28.63790000
 H                  0.93180000   21.16190000   27.09090000
 H                 -0.73210000   20.66480000   27.28430000
 H                  1.55960000   18.67080000   27.64310000
 H                  1.75680000   19.66140000   25.49090000
 H                 -0.02310000   19.23970000   25.19310000
 H                  3.36820000   16.45480000   25.52430000
 H                  2.05750000   16.32870000   25.93790000
 H                  3.05170000   17.63420000   24.88110000
 H                  0.52420000   16.97450000   25.27040000
 H                  1.79470000   16.62450000   23.29970000
 H                  2.33350000   18.39540000   23.38990000
 H                 -1.16440000   17.22260000   23.99130000
 H                 -1.57100000   17.21230000   22.29200000
 H                 -0.42000000   16.05840000   22.92190000
 H                 -0.10420000   17.07370000   27.37860000
 H                 -1.34980000   18.43010000   27.17020000
 H                 -1.10540000   17.31060000   29.78920000
 H                 -1.71570000   18.03380000   28.78450000
 H                  0.08160000   17.33460000   29.08530000

