! B97-3c Opt TightSCF

* xyz 0 1
C     -5.8080280000    0.4240600000    0.9562160000
C     -4.1901490000    0.9953740000    1.5194730000
H     31.8770110000    6.0733260000    3.1413330000
H     31.8965140000    4.3790000000    2.7153190000
C     -7.3656050000    0.8109630000    1.7508510000
C     -2.5842600000    0.6316820000    0.7432750000
H     -4.2652770000    2.0901590000    1.5333240000
H     -4.1078510000    0.6375680000    2.5523590000
C     -0.9509020000    1.2175840000    1.3240260000
H     -4.8313880000   -1.5391260000    0.6996760000
C     -2.5494170000   -0.8821210000    0.6015400000
C      0.6933080000    0.8714180000    0.5728280000
H     -1.0341740000    2.3099070000    1.3387110000
H     -0.8760150000    0.8534660000    2.3559330000
C      2.3338570000    1.4710740000    1.1696160000
H     -1.5757750000   -1.2786060000    0.3559450000
C      0.7537340000   -0.6426750000    0.4251730000
C      4.0040890000    1.1385150000    0.4404580000
H      2.2433990000    2.5629140000    1.1885150000
H      2.4011030000    1.1008420000    2.1998170000
C      5.6474610000    1.7464820000    1.0454750000
H      1.7388730000   -1.0349560000    0.2437240000
C      4.0658630000   -0.3761430000    0.3056520000
C      7.3371480000    1.4491190000    0.3353100000
H      5.5477090000    2.8391320000    1.0619160000
H      5.7176850000    1.3770560000    2.0762310000
C      8.9657150000    2.0635810000    0.9853000000
H      5.0525430000   -0.7794230000    0.1650030000
C      7.4435700000   -0.0535350000    0.1439220000
C     10.6774020000    1.7995370000    0.3228670000
H      8.8526660000    3.1547970000    0.9819790000
H      9.0096910000    1.7146440000    2.0230470000
C     12.2624650000    2.4515820000    1.0151100000
H      8.3436430000   -0.3466960000   -0.3717310000
C     10.9310400000    0.3101310000    0.1632550000
C     13.9632080000    2.1712410000    0.3756270000
H     12.1428110000    3.5407920000    1.0280880000
H     12.2930590000    2.0838270000    2.0474230000
C     15.5182950000    2.8290190000    1.0823020000
H     11.6107490000    0.1409610000   -0.6746500000
C     14.2055880000    0.6733090000    0.2414080000
C     17.2010980000    2.5544080000    0.4504710000
H     15.3950620000    3.9178630000    1.0970800000
H     15.5449580000    2.4618370000    2.1149640000
C     18.7129970000    3.2117440000    1.1859720000
H     14.7807500000    0.4739200000   -0.6667330000
C     17.4568550000    1.0608480000    0.2998510000
C     20.3667850000    2.9439450000    0.5693250000
H     18.5865020000    4.3003050000    1.2041490000
H     18.7298000000    2.8444720000    2.2189480000
C     21.8160560000    3.6066150000    1.3224270000
H     18.0798540000    0.8817620000   -0.5784770000
C     20.6535510000    1.4574210000    0.4487380000
C     23.4338660000    3.3453400000    0.7318130000
H     21.6820900000    4.6941850000    1.3361810000
H     21.8210890000    3.2489280000    2.3588970000
C     24.7689220000    4.0296930000    1.5241340000
H     21.2713860000    1.2773120000   -0.4484460000
C     23.7847130000    1.8637020000    0.6063020000
C     26.3604470000    3.8212620000    1.0063200000
H     24.6032670000    5.1142540000    1.5352820000
H     24.7438250000    3.6825250000    2.5639570000
C     27.4919220000    4.5604420000    1.9074410000
H     24.3993680000    1.7236840000   -0.2849910000
C     26.8388520000    2.3767170000    0.8806840000
C     29.0825120000    4.4817120000    1.5707810000
H     27.2422110000    5.6287090000    1.9182670000
H     27.3775370000    4.2005710000    2.9381650000
C     29.8996380000    5.3084760000    2.6313740000
H     27.6110240000    2.3274810000    0.1217890000
C     29.7364770000    3.0883800000    1.4944980000
C     31.4286150000    5.3389370000    2.4603630000
H     29.5472530000    6.3455200000    2.6168600000
H     29.6941750000    4.9116190000    3.6334870000
H     31.7243290000    5.6049020000    1.4404830000
H     -8.0715500000   -1.7242420000    0.7248310000
C     -5.7999970000   -1.0918870000    0.8210730000
C     -8.9520520000    0.2499890000    1.1978010000
H     -7.2763610000    0.4557000000    2.7843630000
H     -7.4337960000    1.9050140000    1.7656310000
C    -10.4329670000    0.6602180000    2.0237160000
H    -11.1975520000   -1.9478280000    1.3804190000
C     -8.9797830000   -1.2642910000    1.0669960000
C    -11.9933810000    0.1298760000    1.5154490000
H    -10.3257720000    0.3204580000    3.0605090000
H    -10.4839880000    1.7562460000    2.0336390000
C    -13.3416000000    0.5943950000    2.3802110000
H    -14.4430260000   -1.8664170000    1.1683160000
C    -12.1087070000   -1.3826180000    1.3905770000
C    -14.8901790000    0.1342890000    1.9608030000
H    -13.1954180000    0.2632950000    3.4160740000
H    -13.3516610000    1.6914940000    2.3946870000
C    -16.0094140000    0.6898540000    2.9609210000
H    -18.0090230000   -1.5177830000    1.7626690000
C    -15.1285100000   -1.3691490000    1.8413880000
C    -17.5636530000    0.3846540000    2.7622360000
H    -15.7468660000    0.3682240000    3.9766610000
H    -15.9172250000    1.7843080000    2.9520120000
C    -18.3855620000    1.0709140000    3.8777640000
H    -18.1700700000    0.6259720000    4.8556850000
C    -18.0373220000   -1.0824050000    2.7652980000
H    -18.1919790000    2.1445650000    3.9295820000
H    -19.4662630000    0.9465690000    3.7020350000
H    -17.8807120000    0.8310260000    1.8107330000
H    -17.4563930000   -1.6992580000    3.4563350000
H    -19.0900400000   -1.1746970000    3.0663990000
H    -15.0889660000    0.5765600000    0.9759050000
H    -15.1145620000   -1.8616660000    2.8210380000
H    -16.0843760000   -1.5681370000    1.3598160000
H    -12.1218820000    0.5713750000    0.5181670000
H    -12.6397620000   -1.8101450000    2.2568230000
H    -12.6353460000   -1.6378260000    0.4687200000
H     -9.0608920000    0.6910450000    0.1984710000
H     -9.2284470000   -1.7324720000    2.0265760000
H     -9.7013290000   -1.5467840000    0.2948310000
H     -5.9034770000    0.8744270000   -0.0411210000
H     -6.2271920000   -1.5675330000    1.7101540000
H     -6.3562020000   -1.3819100000   -0.0766610000
H     -2.6708010000    1.0816200000   -0.2559150000
H     -2.8590220000   -1.3721330000    1.5288860000
H     -3.1821350000   -1.1953650000   -0.2307850000
H      0.6179760000    1.3263250000   -0.4239350000
H      0.3826010000   -1.1400190000    1.3280860000
H      0.1662590000   -0.9552930000   -0.4441780000
H      3.9394340000    1.5916460000   -0.5591980000
H      3.6778690000   -0.8634230000    1.2056210000
H      3.4961650000   -0.6936070000   -0.5731430000
H      7.2771310000    1.9221080000   -0.6534200000
H      7.3811610000   -0.5851410000    1.0995100000
H      6.6855790000   -0.4073650000   -0.5467550000
H     10.6270330000    2.2640950000   -0.6720480000
H     11.3354700000   -0.1179430000    1.0859250000
H     10.0677080000   -0.2728390000   -0.0909820000
H     13.9246300000    2.6230040000   -0.6251470000
H     14.7277370000    0.2822180000    1.1202860000
H     13.3205730000    0.0700300000    0.1465680000
H     17.1742590000    3.0150270000   -0.5462980000
H     17.9135880000    0.6480390000    1.2008950000
H     16.5639730000    0.4778510000    0.1038270000
H     20.3498330000    3.3940290000   -0.4335530000
H     21.1115990000    1.0561250000    1.3652730000
H     19.7969200000    0.8371230000    0.2527430000
H     23.4328980000    3.7921430000   -0.2719600000
H     24.2899300000    1.5045990000    1.5004170000
H     22.9658630000    1.1836820000    0.4612000000
H     26.4077660000    4.2844140000    0.0111890000
H     27.2265080000    1.9797890000    1.8295600000
H     26.1186870000    1.6672500000    0.5170500000
H     29.2377240000    4.9650440000    0.5971030000
H     29.5223410000    2.4908510000    2.3852860000
H     29.4537310000    2.5366010000    0.6005950000
H     30.8250760000    3.1473990000    1.3992280000
*

